(declare-fun b_ack!119 () (_ BitVec 32))
(declare-fun a_ack!121 () (_ BitVec 32))
(declare-fun c_ack!120 () (_ BitVec 64))
(declare-fun FPCHECK_FDIV_ACCURACY ((_ BitVec 64) (_ FloatingPoint 11 53)) Bool)
(assert (not (bvslt b_ack!119 #x00000000)))
(assert (not (bvslt a_ack!121 #x00000000)))
(assert (not (= #x00000000 b_ack!119)))
(assert (not (= #x00000001 b_ack!119)))
(assert (= #x00000000 a_ack!121))
(assert (not (bvslt b_ack!119 #x00000000)))
(assert (not (= #x00000000 b_ack!119)))
(assert (not (= #x00000001 b_ack!119)))
(assert (not (fp.eq ((_ to_fp 11 53) c_ack!120) ((_ to_fp 11 53) #x0000000000000000))))
(assert (fp.gt (fp.abs ((_ to_fp 11 53) c_ack!120))
       ((_ to_fp 11 53) #x3ff0000000000000)))
(assert (FPCHECK_FDIV_ACCURACY #x7feccccccccccccc (fp.abs ((_ to_fp 11 53) c_ack!120))))

(check-sat)
(exit)
